QPLIB_3181
LGQ
minimize
392 # number of variables
196 # number of constraints
0.0 # default value for linear coefficients in objective
7 # number of non-default linear coefficients in objective
1 8000.0
2 8000.0
3 264.0
4 53.6
13 1680.0
14 2400.0
15 1260.0
0.0 # objective constant
80 # number of quadratic terms in all constraints
181 1663070068 1651076122 2.0
181 1663070068 1651076122 2.0
181 1663070068 1651076122 2.0
181 1663070068 1651076122 2.0
181 1663070068 1651076122 2.0
182 1852403556 824206179 2.0
182 1852403556 824206179 2.0
182 1852403556 824206179 2.0
182 1852403556 824206179 2.0
182 1852403556 824206179 2.0
183 1768711012 12321 2.0
183 1768711012 12321 2.0
183 1768711012 12321 2.0
183 1768711012 12321 2.0
183 1768711012 12321 2.0
184 775173731 1 2.0
184 775173731 1 2.0
184 775173731 1 2.0
184 775173731 1 2.0
184 775173731 1 2.0
185 1646292852 1 2.0
185 1646292852 1 2.0
185 1646292852 1 2.0
185 1646292852 1 2.0
185 1646292852 1 -2.0
186 824209008 1 2.0
186 824209008 1 2.0
186 824209008 1 2.0
186 824209008 1 2.0
186 824209008 1 -2.0
187 12321 50 2.0
187 12321 50 2.0
187 12321 50 2.0
187 12321 50 2.0
187 12321 50 -2.0
188 1 1 -2.0
188 1 1 2.0
188 1 1 2.0
188 1 1 2.0
188 1 1 2.0
188 1 1 2.0
189 1651076122 18677761 2.0
189 1651076122 18677761 2.0
189 1651076122 18677761 2.0
189 1651076122 18677761 2.0
189 1651076122 18677761 -2.0
190 1852403556 1 2.0
190 1852403556 1 2.0
190 1852403556 1 2.0
190 1852403556 1 2.0
190 1852403556 1 -2.0
191 1768711012 50 2.0
191 1768711012 50 2.0
191 1768711012 50 2.0
191 1768711012 50 2.0
191 1768711012 50 -2.0
192 775173731 1 -2.0
192 775173731 1 2.0
192 775173731 1 2.0
192 775173731 1 2.0
192 775173731 1 2.0
192 775173731 1 2.0
193 1651076122 1646292852 -2.0
193 1651076122 1646292852 -1.9
193 1651076122 1646292852 -1.6
194 1852403556 824209008 -2.0
194 1852403556 824209008 -1.8
194 1852403556 824209008 -1.9
195 1768711012 12321 2.0
195 1768711012 12321 2.0
195 1768711012 12321 2.0
195 1768711012 12321 2.0
195 1768711012 12321 2.0
195 1768711012 12321 2.0
196 775173731 1 2.0
196 775173731 1 2.0
196 775173731 1 2.0
196 775173731 1 2.0
196 775173731 1 2.0
196 775173731 1 2.0
563 # number of linear terms in all constraints
1 16 1.0
1 17 1.0
1 18 1.0
1 19 1.0
2 20 1.0
2 21 1.0
2 22 1.0
2 23 1.0
3 24 1.0
3 25 1.0
3 26 1.0
3 27 1.0
4 28 -1.0
4 29 1.0
4 30 1.0
5 31 -1.0
5 32 1.0
5 33 1.0
6 34 -1.0
6 35 1.0
6 36 1.0
7 37 -1.0
7 38 1.0
7 39 1.0
8 40 -1.0
8 41 1.0
8 42 1.0
9 43 -1.0
9 44 1.0
9 45 1.0
10 46 -1.0
10 47 1.0
10 48 1.0
11 49 -1.0
11 50 1.0
11 51 1.0
12 52 -1.0
12 53 1.0
12 54 1.0
13 55 -1.0
13 56 1.0
13 57 1.0
14 58 -1.0
14 59 1.0
14 60 1.0
15 61 -1.0
15 62 1.0
15 63 1.0
16 64 -1.0
16 65 1.0
16 66 1.0
17 67 -1.0
17 68 1.0
17 69 1.0
18 70 -1.0
18 71 1.0
18 72 1.0
19 73 -1.0
19 74 1.0
19 75 1.0
20 16 -1.0
20 76 1.0
20 77 1.0
21 17 -1.0
21 78 1.0
21 79 1.0
22 18 -1.0
22 80 1.0
22 81 1.0
23 19 -1.0
23 82 1.0
23 83 1.0
24 84 -1.0
24 85 1.0
24 86 1.0
25 87 -1.0
25 88 1.0
25 89 1.0
26 90 -1.0
26 91 1.0
26 92 1.0
27 93 -1.0
27 94 1.0
27 95 1.0
28 96 -1.0
28 97 1.0
28 98 1.0
29 99 -1.0
29 100 1.0
29 101 1.0
30 102 -1.0
30 103 1.0
30 104 1.0
31 105 -1.0
31 106 1.0
31 107 1.0
32 108 -1.0
32 109 1.0
32 110 1.0
33 111 -1.0
33 112 1.0
33 113 1.0
34 114 -1.0
34 115 1.0
34 116 1.0
35 117 -1.0
35 118 1.0
35 119 1.0
36 120 -1.0
36 121 1.0
36 122 1.0
37 123 -1.0
37 124 1.0
37 125 1.0
38 126 -1.0
38 127 1.0
38 128 1.0
39 129 -1.0
39 130 1.0
39 131 1.0
40 132 -1.0
40 133 1.0
40 134 1.0
41 135 -1.0
41 136 1.0
41 137 1.0
42 138 -1.0
42 139 1.0
42 140 1.0
43 141 -1.0
43 142 1.0
43 143 1.0
44 144 -1.0
44 145 1.0
44 146 1.0
45 147 -1.0
45 148 1.0
45 149 1.0
46 150 -1.0
46 151 1.0
46 152 1.0
47 153 -1.0
47 154 1.0
47 155 1.0
48 156 -1.0
48 157 1.0
48 158 1.0
49 159 -1.0
49 160 1.0
49 161 1.0
50 162 -1.0
50 163 1.0
50 164 1.0
51 165 -1.0
51 166 1.0
51 167 1.0
52 20 -1.0
52 168 1.0
52 169 1.0
53 21 -1.0
53 170 1.0
53 171 1.0
54 22 -1.0
54 172 1.0
54 173 1.0
55 23 -1.0
55 174 1.0
55 175 1.0
56 176 -1.0
56 177 1.0
56 178 1.0
57 179 -1.0
57 180 1.0
57 181 1.0
58 182 -1.0
58 183 1.0
58 184 1.0
59 185 -1.0
59 186 1.0
59 187 1.0
60 188 -1.0
60 189 1.0
60 190 1.0
61 191 -1.0
61 192 1.0
61 193 1.0
62 194 -1.0
62 195 1.0
62 196 1.0
63 197 -1.0
63 198 1.0
63 199 1.0
64 200 -1.0
64 201 1.0
64 202 1.0
65 203 -1.0
65 204 1.0
65 205 1.0
66 206 -1.0
66 207 1.0
66 208 1.0
67 209 -1.0
67 210 1.0
67 211 1.0
68 212 -1.0
68 213 1.0
68 214 1.0
69 215 -1.0
69 216 1.0
69 217 1.0
70 218 -1.0
70 219 1.0
70 220 1.0
71 221 -1.0
71 222 1.0
71 223 1.0
72 224 -1.0
72 225 1.0
72 226 1.0
73 227 -1.0
73 228 1.0
73 229 1.0
74 230 -1.0
74 231 1.0
74 232 1.0
75 233 -1.0
75 234 1.0
75 235 1.0
76 236 -1.0
76 237 1.0
76 238 1.0
77 239 -1.0
77 240 1.0
77 241 1.0
78 242 -1.0
78 243 1.0
78 244 1.0
79 245 -1.0
79 246 1.0
79 247 1.0
80 248 -1.0
80 249 1.0
80 250 1.0
81 251 -1.0
81 252 1.0
81 253 1.0
82 254 -1.0
82 255 1.0
82 256 1.0
83 257 -1.0
83 258 1.0
83 259 1.0
84 24 -1.0
84 260 1.0
84 261 1.0
85 25 -1.0
85 262 1.0
85 263 1.0
86 26 -1.0
86 264 1.0
86 265 1.0
87 27 -1.0
87 266 1.0
87 267 1.0
88 2 1.0
88 77 -37.5
88 78 -37.5
88 79 -75.0
88 80 -75.0
88 81 -112.5
88 82 -112.5
88 83 -150.0
89 3 1.0
89 169 -37.5
89 170 -37.5
89 171 -75.0
89 172 -75.0
89 173 -112.5
89 174 -112.5
89 175 -150.0
90 4 1.0
90 261 -37.5
90 262 -37.5
90 263 -75.0
90 264 -75.0
90 265 -112.5
90 266 -112.5
90 267 -150.0
91 13 1.0
91 77 -12.64217761
91 78 -12.64217761
91 79 -20.53727812
91 80 -20.53727812
91 81 -27.27763826
91 82 -27.27763826
91 83 -33.36290673
91 268 -33.36290673
92 14 1.0
92 169 -12.64217761
92 170 -12.64217761
92 171 -20.53727812
92 172 -20.53727812
92 173 -27.27763826
92 174 -27.27763826
92 175 -33.36290673
92 269 -33.36290673
93 15 1.0
93 261 -12.64217761
93 262 -12.64217761
93 263 -20.53727812
93 264 -20.53727812
93 265 -27.27763826
93 266 -27.27763826
93 267 -33.36290673
93 270 -33.36290673
94 271 1.0
94 272 1.0
94 273 1.0
94 274 1.0
94 275 1.0
94 276 1.0
95 277 1.0
95 278 1.0
95 279 1.0
95 280 1.0
95 281 1.0
95 282 1.0
96 283 1.0
96 284 1.0
96 285 1.0
96 286 1.0
96 287 1.0
96 288 1.0
97 289 1.0
97 290 1.0
97 291 1.0
97 292 1.0
97 293 1.0
97 294 -1.0
98 295 1.0
98 296 1.0
98 297 1.0
98 298 1.0
98 299 1.0
98 300 -1.0
99 301 1.0
99 302 1.0
99 303 1.0
99 304 1.0
99 305 1.0
99 306 -1.0
100 1 -1.0
100 307 1.0
100 308 1.0
100 309 1.0
100 310 1.0
100 311 1.0
100 312 1.0
101 278 1.0
101 284 1.0
101 289 1.0
101 295 1.0
101 301 1.0
101 307 1.0
102 272 1.0
102 285 1.0
102 290 1.0
102 296 1.0
102 302 1.0
102 308 1.0
103 273 1.0
103 279 1.0
103 291 1.0
103 297 1.0
103 303 1.0
103 309 1.0
104 2 -1.0
104 274 1.0
104 280 1.0
104 286 1.0
104 298 1.0
104 304 1.0
104 310 1.0
105 3 -1.0
105 275 1.0
105 281 1.0
105 287 1.0
105 292 1.0
105 305 1.0
105 311 1.0
106 4 -1.0
106 276 1.0
106 282 1.0
106 288 1.0
106 293 1.0
106 299 1.0
106 312 1.0
107 313 1.0
107 314 -1.0
108 314 -1.0
108 315 1.0
109 314 -1.0
109 316 1.0
110 314 -1.0
110 317 1.0
111 314 -1.0
111 318 1.0
112 314 -1.0
112 319 1.0
113 320 1.0
113 321 -1.0
114 321 -1.0
114 322 1.0
115 321 -1.0
115 323 1.0
116 321 -1.0
116 324 1.0
117 321 -1.0
117 325 1.0
118 321 -1.0
118 326 1.0
119 327 1.0
119 328 -1.0
120 328 -1.0
120 329 1.0
121 328 -1.0
121 330 1.0
122 328 -1.0
122 331 1.0
123 328 -1.0
123 332 1.0
124 328 -1.0
124 333 1.0
125 334 1.0
125 335 -1.0
126 335 -1.0
126 336 1.0
127 335 -1.0
127 337 1.0
128 335 -1.0
128 338 1.0
129 335 -1.0
129 339 1.0
130 335 -1.0
130 340 1.0
131 341 1.0
131 342 -1.0
132 342 -1.0
132 343 1.0
133 342 -1.0
133 344 1.0
134 342 -1.0
134 345 1.0
135 342 -1.0
135 346 1.0
136 342 -1.0
136 347 1.0
137 348 1.0
137 349 -1.0
138 349 -1.0
138 350 1.0
139 349 -1.0
139 351 1.0
140 349 -1.0
140 352 1.0
141 349 -1.0
141 353 1.0
142 349 -1.0
142 354 1.0
143 355 1.0
143 356 -1.0
144 356 -1.0
144 357 1.0
145 356 -1.0
145 358 1.0
146 356 -1.0
146 359 1.0
147 356 -1.0
147 360 1.0
148 356 -1.0
148 361 1.0
149 362 1.0
149 363 -1.0
150 363 -1.0
150 364 1.0
151 363 -1.0
151 365 1.0
152 363 -1.0
152 366 1.0
153 363 -1.0
153 367 1.0
154 363 -1.0
154 368 1.0
155 369 1.0
155 370 -1.0
156 370 -1.0
156 371 1.0
157 370 -1.0
157 372 1.0
158 370 -1.0
158 373 1.0
159 370 -1.0
159 374 1.0
160 370 -1.0
160 375 1.0
161 376 1.0
161 377 -1.0
162 377 -1.0
162 378 1.0
163 377 -1.0
163 379 1.0
164 377 -1.0
164 380 1.0
165 377 -1.0
165 381 1.0
166 377 -1.0
166 382 1.0
167 1 -1.0
167 271 1.0
167 277 1.0
167 283 1.0
168 314 50.0
168 383 -50.0
169 321 60.0
169 384 -60.0
170 349 50.0
170 385 -50.0
171 356 60.0
171 386 -60.0
172 2 1.0
172 294 -1.0
173 3 1.0
173 300 -1.0
174 4 1.0
174 306 -1.0
175 328 1.0
175 387 -0.05
176 335 1.0
176 388 -0.2
177 342 1.0
177 389 -1.0
178 363 1.0
178 390 -1.0
179 370 1.0
179 391 -0.1
180 377 1.0
180 392 -0.05
181 278 25.0
181 383 -50.0
182 284 25.0
182 384 -60.0
183 278 37.5
183 385 -50.0
184 284 37.5
184 386 -60.0
185 289 25.0
186 295 25.0
187 301 25.0
188 307 25.0
189 289 37.5
190 295 37.5
191 301 37.5
192 307 37.5
1.79769313486232E+308 # value for infinity
0.0 # default left-hand-side value
15 # number of non-default left-hand-sides
1 1.0
2 1.0
3 1.0
94 40.0
95 50.0
96 60.0
101 40.0
102 50.0
103 60.0
168 1000.0
169 1000.0
170 1000.0
171 1000.0
193 -3000.0
194 -3500.0
0.0 # default right-hand-side value
18 # number of non-default right-hand-sides
1 1.0
2 1.0
3 1.0
91 1.79769313486232E+308
92 1.79769313486232E+308
93 1.79769313486232E+308
94 40.0
95 50.0
96 60.0
101 40.0
102 50.0
103 60.0
168 1000.0
169 1000.0
170 1000.0
171 1000.0
193 -3000.0
194 -3500.0
0.0 # default variable lower bound value
0 # number of non-default variable lower bounds
1.0 # default variable upper bound value
137 # number of non-default variable upper bounds
1 150.0
2 150.0
3 150.0
4 150.0
5 70.0
6 70.0
7 70.0
8 70.0
9 70.0
10 70.0
11 10.0
12 10.0
13 33.36290673
14 33.36290673
15 33.36290673
271 150.0
272 150.0
273 150.0
274 150.0
275 150.0
276 150.0
277 150.0
278 150.0
279 150.0
280 150.0
281 150.0
282 150.0
283 150.0
284 150.0
285 150.0
286 150.0
287 150.0
288 150.0
289 150.0
290 150.0
291 150.0
292 150.0
293 150.0
294 150.0
295 150.0
296 150.0
297 150.0
298 150.0
299 150.0
300 150.0
301 150.0
302 150.0
303 150.0
304 150.0
305 150.0
306 150.0
307 150.0
308 150.0
309 150.0
310 150.0
311 150.0
312 150.0
313 70.0
314 70.0
315 70.0
316 70.0
317 70.0
318 70.0
319 70.0
320 70.0
321 66.66666667
322 70.0
323 70.0
324 70.0
325 70.0
326 70.0
327 70.0
328 3.5
329 70.0
330 70.0
331 70.0
332 70.0
333 70.0
334 70.0
335 14.0
336 70.0
337 70.0
338 70.0
339 70.0
340 70.0
341 70.0
342 70.0
343 70.0
344 70.0
345 70.0
346 70.0
347 70.0
348 70.0
349 70.0
350 70.0
351 70.0
352 70.0
353 70.0
354 70.0
355 70.0
356 66.66666667
357 70.0
358 70.0
359 70.0
360 70.0
361 70.0
362 70.0
363 70.0
364 70.0
365 70.0
366 70.0
367 70.0
368 70.0
369 70.0
370 7.0
371 70.0
372 70.0
373 70.0
374 70.0
375 70.0
376 70.0
377 3.5
378 70.0
379 70.0
380 70.0
381 70.0
382 70.0
383 50.0
384 50.0
385 50.0
386 50.0
387 70.0
388 70.0
389 70.0
390 70.0
391 70.0
392 70.0
0 # default variable type
84 # number of non-default variable types
16 1
17 1
18 1
19 1
20 1
21 1
22 1
23 1
24 1
25 1
26 1
27 1
28 1
31 1
34 1
37 1
40 1
43 1
46 1
49 1
52 1
55 1
58 1
61 1
64 1
67 1
70 1
73 1
84 1
87 1
90 1
93 1
96 1
99 1
102 1
105 1
108 1
111 1
114 1
117 1
120 1
123 1
126 1
129 1
132 1
135 1
138 1
141 1
144 1
147 1
150 1
153 1
156 1
159 1
162 1
165 1
176 1
179 1
182 1
185 1
188 1
191 1
194 1
197 1
200 1
203 1
206 1
209 1
212 1
215 1
218 1
221 1
224 1
227 1
230 1
233 1
236 1
239 1
242 1
245 1
248 1
251 1
254 1
257 1
0.0 # default variable primal value in starting point
0 # number of non-default variable primal values in starting point
0.0 # default constraint dual value in starting point
0 # number of non-default constraint dual values in starting point
0.0 # default variable bound dual value in starting point
0 # number of non-default variable bound dual values in starting point
0 # number of non-default variable names
0 # number of non-default constraint names
